# Solution for model JobShopModel
# Objective value = 27
y[0,0,1] 0
y[0,0,3] 1
y[0,1,0] 1
y[0,1,1] 0
y[0,2,1] 0
y[0,2,3] 1
y[1,0,1] 0
y[1,0,2] 1
y[1,1,2] 1
y[1,1,3] 0
y[1,2,1] 1
y[1,2,2] 0
y[2,0,1] 1
y[2,0,3] 0
y[2,1,0] 1
y[2,1,1] 0
y[2,2,2] 1
y[2,2,3] 0
x[0,0,0,0] 0
x[0,0,0,1] 0
x[0,0,0,2] 1
x[0,0,1,0] 1
x[0,0,1,1] 1
x[0,0,1,2] 0
x[0,0,2,0] 0
x[0,0,2,1] 0
x[0,0,2,2] 0
x[0,1,0,0] 1
x[0,1,0,1] 0
x[0,1,0,2] 0
x[0,1,1,0] 1
x[0,1,1,1] 0
x[0,1,1,2] 0
x[0,1,2,0] 1
x[0,1,2,1] 1
x[0,1,2,2] 0
x[0,2,0,0] 0
x[0,2,0,1] 0
x[0,2,0,2] 0
x[0,2,1,0] 1
x[0,2,1,1] 1
x[0,2,1,2] 0
x[0,2,2,0] 0
x[0,2,2,1] 0
x[0,2,2,2] 0
x[1,0,0,0] 0
x[1,0,0,1] 0
x[1,0,0,2] 0
x[1,0,1,0] 0
x[1,0,1,1] 1
x[1,0,1,2] 1
x[1,0,2,0] 1
x[1,0,2,1] 0
x[1,0,2,2] 1
x[1,1,0,0] 0
x[1,1,0,1] 0
x[1,1,0,2] 0
x[1,1,1,0] 0
x[1,1,1,1] 0
x[1,1,1,2] 0
x[1,1,2,0] 0
x[1,1,2,1] 0
x[1,1,2,2] 1
x[1,2,0,0] 0
x[1,2,0,1] 0
x[1,2,0,2] 0
x[1,2,1,0] 0
x[1,2,1,1] 0
x[1,2,1,2] 0
x[1,2,2,0] 1
x[1,2,2,1] 0
x[1,2,2,2] 1
x[2,0,0,0] 0
x[2,0,0,1] 0
x[2,0,0,2] 0
x[2,0,1,0] 0
x[2,0,1,1] 0
x[2,0,1,2] 0
x[2,0,2,0] 0
x[2,0,2,1] 0
x[2,0,2,2] 0
x[2,1,0,0] 0
x[2,1,0,1] 0
x[2,1,0,2] 0
x[2,1,1,0] 0
x[2,1,1,1] 0
x[2,1,1,2] 0
x[2,1,2,0] 0
x[2,1,2,1] 0
x[2,1,2,2] 0
x[2,2,0,0] 0
x[2,2,0,1] 0
x[2,2,0,2] 0
x[2,2,1,0] 0
x[2,2,1,1] 0
x[2,2,1,2] 0
x[2,2,2,0] 0
x[2,2,2,1] 0
x[2,2,2,2] 0
s[0,0,1] 0
s[0,0,3] 1.2000000000001496e+01
s[0,1,0] 9.5982767759003611e+00
s[0,1,1] 0
s[0,2,1] 0
s[0,2,3] 3
s[1,0,1] 0
s[1,0,2] 2.2000000000000867e+01
s[1,1,2] 1.2403063523949115e+01
s[1,1,3] 0
s[1,2,1] 1.5000000000000654e+01
s[1,2,2] 0
s[2,0,1] 4.0000000000006875e+00
s[2,0,3] 0
s[2,1,0] 2.0000000000004690e+00
s[2,1,1] 0
s[2,2,2] 6.6755859091015853e-13
s[2,2,3] 0
Z_FO 27
C118 0
C119 1
C120 0
C121 1
C122 1
C123 0
